
Route #1: 5 13 50 18 61 21 52 
Route #2: 12 54 14 58 24 43 23 53 11 
Route #3: 15 56 49 46 59 8 60 
Route #4: 28 36 27 45 37 
Route #5: 34 39 25 51 19 62 35 
Route #6: 29 48 16 55 32 
Route #7: 44 40 31 47 22 42 
Route #8: 6 57 38 41 26 33 30 
Route #9: 17 2 10 4 3 9 
Route #10: 7 20 1 
cost 2166.98
total time is 6.3